
  32    1
  10

   0   0   4 2 4 5 9 
   3   1   3 12 7 3 
   2   1   2 8 6 
   5   1   2 12 6 
   2   2   3 12 11 8 
   1   2   2 13 10 
   6   1   2 13 10 
   1   1   2 15 13 
   7   3   2 17 13 
   7   3   1 11 
   4   2   2 17 14 
   2   1   2 15 14 
   5   2   1 14 
   2   2   1 16 
   3   2   1 16 
   9   1   3 31 19 18 
   9   1   5 31 30 25 24 20 
   3   2   4 25 23 22 21 
   7   1   2 30 20 
   1   3   3 28 23 22 
   5   5   3 30 27 24 
   6   3   2 29 27 
  10   2   1 26 
   9   1   1 26 
   4   2   1 28 
   7   3   1 32
   5   2   1 32
   4   5   1 32
   5   1   1 32
   9   1   1 32
   4   3   1 32
   0   0   0 
